param n := 120;
param c := 3000
param : V : p w :=
   0	  17	 433
   1	   8	 260
   2	  62	 307
   3	  48	 493
   4	  84	 252
   5	  93	 255
   6	  10	 415
   7	  60	 280
   8	  52	 305
   9	  32	 457
  10	  33	 253
  11	   6	 290
  12	  27	 491
  13	  91	 251
  14	  54	 258
  15	  84	 375
  16	  36	 254
  17	  53	 371
  18	  71	 402
  19	  92	 289
  20	   7	 309
  21	  34	 410
  22	  62	 275
  23	  55	 315
  24	  82	 393
  25	  34	 275
  26	  47	 332
  27	  74	 462
  28	  57	 259
  29	  93	 279
  30	  17	 414
  31	  24	 254
  32	  71	 332
  33	  23	 355
  34	  80	 312
  35	  30	 333
  36	  39	 474
  37	  26	 258
  38	  79	 268
  39	  81	 420
  40	  43	 282
  41	  74	 298
  42	  38	 453
  43	  69	 272
  44	  32	 275
  45	  95	 408
  46	  28	 289
  47	  26	 303
  48	  96	 411
  49	  15	 260
  50	  48	 329
  51	   2	 363
  52	  95	 303
  53	  97	 334
  54	  24	 447
  55	  66	 255
  56	  65	 298
  57	  79	 471
  58	  90	 256
  59	 100	 273
  60	  24	 499
  61	  12	 250
  62	  12	 251
  63	   7	 424
  64	  79	 277
  65	  61	 299
  66	  32	 465
  67	   4	 257
  68	  99	 278
  69	  93	 373
  70	  89	 269
  71	  46	 358
  72	  50	 494
  73	  79	 250
  74	  73	 256
  75	  69	 413
  76	  69	 281
  77	  41	 306
  78	  81	 462
  79	  33	 257
  80	   2	 281
  81	  82	 435
  82	  28	 280
  83	  23	 285
  84	  89	 480
  85	  23	 250
  86	  82	 270
  87	  88	 389
  88	   6	 271
  89	  23	 340
  90	  42	 462
  91	  16	 254
  92	  59	 284
  93	  13	 469
  94	  67	 259
  95	  74	 272
  96	   1	 351
  97	  60	 291
  98	  41	 358
  99	  99	 389
 100	  62	 268
 101	  40	 343
 102	  88	 383
 103	   3	 282
 104	  37	 335
 105	  11	 394
 106	  23	 288
 107	  34	 318
 108	  67	 393
 109	  67	 258
 110	  47	 349
 111	  31	 482
 112	  79	 257
 113	  67	 261
 114	   6	 363
 115	  45	 282
 116	  41	 355
 117	  97	 423
 118	  42	 264
 119	  85	 313
;

set E :=
   0	   2
   0	  12
   0	  24
   0	  34
   0	  40
   0	  63
   0	  84
   0	  93
   0	  95
   0	 103
   0	 110
   1	   9
   1	  15
   1	  17
   1	  22
   1	  48
   1	  67
   1	  78
   1	  79
   1	  84
   1	 111
   2	  22
   2	  24
   2	  26
   2	  37
   2	  49
   2	  50
   2	  55
   2	  57
   2	  62
   2	  70
   2	  73
   2	  88
   2	  92
   2	  96
   2	  99
   2	 109
   2	 114
   2	 117
   3	  62
   3	  71
   3	  75
   3	  78
   3	  79
   3	  80
   3	  87
   3	  93
   3	 116
   4	  12
   4	  21
   4	  22
   4	  23
   4	  28
   4	  38
   4	  63
   4	  69
   4	  72
   4	  79
   4	  85
   4	  98
   5	  13
   5	  17
   5	  32
   5	  41
   5	  46
   5	  56
   5	  70
   5	  79
   5	  82
   5	 109
   5	 113
   5	 114
   6	  13
   6	  21
   6	  29
   6	  35
   6	  41
   6	  44
   6	  75
   6	  89
   6	  90
   6	  99
   6	 108
   6	 110
   7	  20
   7	  33
   7	  62
   7	  78
   7	  79
   7	  87
   7	  92
   7	  95
   7	 102
   8	  13
   8	  15
   8	  20
   8	  35
   8	  45
   8	  50
   8	  55
   8	  59
   8	  63
   8	  65
   8	  66
   8	  75
   8	  80
   8	  81
   8	  95
   8	  96
   8	 104
   9	  16
   9	  26
   9	  40
   9	  65
   9	  73
   9	  75
   9	  80
   9	  81
   9	  94
   9	 105
  10	  17
  10	  25
  10	  44
  10	  53
  10	  61
  10	  95
  10	  98
  10	 112
  11	  18
  11	  60
  11	  63
  11	  72
  11	  77
  11	  78
  11	 109
  11	 114
  12	  22
  12	  25
  12	  30
  12	  57
  12	  65
  12	  71
  12	  76
  12	  86
  12	  99
  12	 100
  12	 105
  12	 107
  13	  14
  13	  37
  13	  50
  13	  61
  13	  63
  13	  66
  13	  75
  13	  83
  13	  89
  13	 108
  14	  37
  14	  49
  14	  56
  14	  60
  14	  68
  14	  70
  14	  74
  14	 102
  14	 111
  15	  49
  15	  60
  15	  79
  15	  82
  15	  84
  15	  87
  15	  89
  15	 105
  15	 110
  16	  50
  16	  57
  16	  63
  16	  64
  16	  67
  16	  75
  16	  83
  16	  84
  16	  90
  16	  92
  16	 100
  16	 114
  16	 119
  17	  24
  17	  44
  17	  58
  17	  62
  17	  75
  17	  92
  17	  93
  17	 115
  18	  34
  18	  35
  18	  41
  18	  55
  18	  77
  18	  82
  18	 100
  19	  21
  19	  31
  19	  36
  19	  40
  19	  48
  19	  57
  19	  68
  19	  73
  19	  91
  19	  97
  19	  99
  19	 100
  20	  21
  20	  38
  20	  44
  20	  48
  20	  54
  20	  68
  20	  70
  20	  72
  20	  81
  21	  42
  21	  51
  21	  55
  21	  69
  21	  72
  21	  83
  21	  84
  21	 101
  21	 102
  22	  44
  22	  49
  22	  57
  22	  69
  22	  71
  22	  72
  22	  80
  22	  81
  22	 103
  22	 113
  23	  31
  23	  35
  23	  41
  23	  50
  23	  51
  23	  54
  23	  69
  23	  80
  23	  94
  23	  99
  23	 104
  24	  29
  24	  31
  24	  53
  24	  58
  24	  65
  24	  71
  24	  90
  24	  91
  24	  97
  24	  99
  24	 100
  24	 105
  24	 107
  24	 108
  25	  57
  25	  67
  25	  68
  25	  74
  25	  77
  25	  87
  25	  96
  25	 105
  25	 111
  26	  28
  26	  29
  26	  50
  26	  53
  26	  56
  26	  62
  26	  74
  26	  77
  26	  88
  26	  96
  26	 100
  26	 107
  26	 118
  27	  29
  27	  32
  27	  37
  27	  48
  27	  51
  27	  53
  27	  55
  27	  60
  27	  74
  27	  76
  27	  86
  27	 104
  27	 106
  27	 109
  28	  45
  28	  52
  28	  57
  28	  61
  28	  82
  28	  88
  28	 119
  29	  31
  29	  39
  29	  48
  29	  62
  29	  71
  29	  79
  29	  86
  29	 108
  29	 112
  29	 113
  29	 115
  30	  37
  30	  47
  30	  59
  30	  72
  30	  75
  30	  77
  30	 116
  31	  32
  31	  57
  31	  68
  31	 108
  31	 111
  31	 112
  32	  35
  32	  41
  32	  86
  32	  87
  32	  89
  32	 105
  32	 108
  32	 110
  32	 112
  32	 116
  32	 119
  33	  36
  33	  37
  33	  58
  33	  69
  33	  77
  33	  86
  33	 102
  33	 107
  33	 115
  33	 118
  34	  45
  34	  80
  34	  81
  34	  91
  34	 103
  34	 112
  35	  39
  35	  45
  35	  46
  35	  55
  35	  76
  35	  77
  35	  88
  35	  93
  35	  95
  35	  97
  35	 113
  35	 118
  36	  51
  36	  78
  36	  84
  36	  97
  36	 115
  37	  48
  37	  51
  37	  53
  37	  54
  37	  62
  37	  69
  37	  79
  37	  99
  37	 110
  37	 118
  37	 119
  38	  43
  38	  68
  38	  99
  38	 104
  38	 115
  39	  58
  39	  63
  39	  66
  39	  73
  39	  94
  39	 103
  39	 110
  39	 114
  39	 115
  40	  51
  40	  52
  40	  54
  40	  59
  40	  61
  40	  65
  40	 102
  41	  48
  41	  50
  41	  75
  41	  80
  41	  84
  41	  95
  41	  97
  41	 102
  41	 104
  42	  46
  42	  57
  42	  63
  42	  69
  42	  89
  42	  95
  42	 114
  43	  54
  43	  67
  43	  98
  43	  99
  43	 105
  43	 110
  43	 115
  44	  47
  44	  49
  44	  70
  44	  75
  44	  78
  44	  84
  44	  97
  44	  98
  44	 105
  44	 111
  44	 118
  45	  57
  45	  67
  45	  88
  45	  94
  45	 114
  46	  66
  46	  72
  46	  73
  46	  83
  46	  85
  46	  92
  46	  93
  46	  96
  46	 107
  47	  49
  47	  55
  47	  76
  47	  77
  47	  99
  47	 103
  48	  80
  48	  81
  49	  93
  49	  97
  49	 100
  49	 102
  49	 103
  49	 112
  50	  65
  50	  69
  50	  72
  50	  79
  50	 101
  50	 103
  50	 116
  51	  54
  51	  72
  51	  74
  51	  87
  51	 105
  51	 116
  52	  66
  52	  70
  52	  75
  52	  97
  52	 103
  52	 115
  53	  55
  53	  60
  53	  67
  53	  69
  53	  80
  53	  85
  53	  86
  53	  88
  53	 117
  54	  70
  54	  78
  54	  79
  54	  86
  54	  87
  54	  94
  54	  99
  54	 104
  54	 109
  54	 117
  55	  65
  55	  78
  55	  82
  55	  89
  55	  93
  55	  96
  55	  98
  55	 107
  56	  57
  56	  61
  56	  67
  56	  71
  56	  90
  56	  95
  56	  98
  56	 112
  56	 116
  57	  62
  57	  73
  57	  77
  57	  82
  57	 108
  57	 115
  58	  61
  58	  68
  58	  79
  58	  81
  58	 114
  58	 115
  58	 118
  59	  77
  59	  80
  59	  99
  59	 110
  59	 114
  59	 118
  60	 118
  60	 119
  61	  72
  61	  82
  61	  86
  61	  87
  61	  88
  61	 101
  62	  72
  62	  74
  62	  82
  62	 102
  62	 110
  63	  76
  63	  82
  63	  84
  63	 116
  64	  71
  64	  80
  64	  83
  64	  98
  64	 102
  64	 115
  65	  92
  65	  95
  65	 110
  65	 115
  66	  70
  66	 118
  67	  74
  67	  96
  67	 100
  67	 117
  68	  70
  68	  98
  68	 114
  68	 115
  69	  76
  69	  78
  69	  91
  69	 101
  70	  75
  70	  87
  70	 101
  70	 109
  70	 116
  71	  89
  71	  96
  71	 102
  71	 103
  71	 108
  72	  76
  72	 105
  72	 118
  73	  80
  73	  83
  73	  88
  73	  90
  73	 107
  73	 115
  73	 117
  74	  92
  74	  94
  74	  99
  74	 111
  74	 118
  75	  81
  75	  99
  75	 104
  75	 109
  75	 114
  76	  90
  76	  91
  76	  92
  76	 103
  77	 108
  77	 112
  78	  84
  78	 101
  78	 104
  79	  84
  79	 103
  79	 113
  80	  82
  80	  87
  80	  92
  80	 112
  80	 116
  80	 119
  81	  92
  81	 100
  81	 115
  82	  93
  82	  96
  82	 116
  83	 111
  83	 117
  83	 119
  84	  94
  84	 101
  84	 115
  84	 117
  84	 118
  85	  86
  85	 103
  85	 106
  85	 115
  86	  89
  86	 100
  87	 103
  87	 115
  88	 100
  88	 104
  88	 106
  89	  90
  89	  94
  89	  96
  89	  98
  89	 101
  89	 104
  91	  92
  91	  94
  91	  96
  91	  99
  91	 102
  91	 106
  91	 114
  91	 117
  92	  95
  92	 100
  92	 104
  92	 111
  93	 105
  93	 109
  93	 111
  94	 113
  95	  98
  95	 109
  95	 117
  96	  99
  96	 101
  97	 104
  97	 108
  97	 112
  97	 114
  97	 118
  98	 102
  98	 115
  98	 118
  99	 110
 100	 101
 100	 118
 101	 102
 101	 104
 102	 106
 102	 111
 104	 115
 104	 119
 105	 109
 105	 110
 106	 112
 106	 113
 107	 109
 107	 114
 109	 112
 109	 119
 110	 111
 110	 115
 110	 116
 112	 113
 113	 118
 115	 117
;
